qbf_easy_train/easy_4923_SAT.qdimacs
p cnf 28 71
a 9 10 12 0
e 1 2 3 4 5 6 7 8 11 13 14 15 16 17 18 19 20 21 22 23 24 25 26 27 28 0
3 1 0
3 2 0
-1 -2 -3 0
4 2 -5 0
-4 -2 -5 0
4 -2 5 0
-4 2 5 0
-3 -5 -6 0
3 5 -6 0
-3 5 6 0
3 -5 6 0
-9 -7 0
-9 -8 0
7 8 9 0
-12 11 0
-12 4 0
-11 -4 12 0
-13 10 0
-13 -12 0
-10 12 13 0
14 -9 0
14 13 0
9 -13 -14 0
-16 1 0
-16 -11 0
-1 11 16 0
-17 15 0
-17 -16 0
-15 16 17 0
17 -7 -18 0
-17 7 -18 0
17 7 18 0
-17 -7 18 0
19 -8 0
19 -5 0
8 5 -19 0
20 -18 0
20 19 0
18 -19 -20 0
21 14 0
21 20 0
-14 -20 -21 0
-22 2 0
-22 -4 0
-2 4 22 0
23 22 0
23 -12 0
-22 12 -23 0
-24 -15 0
-24 2 0
15 -2 24 0
-25 -3 0
-25 -24 0
3 24 25 0
26 23 0
26 -25 0
-23 25 -26 0
-21 26 -27 0
21 -26 -27 0
-21 -26 27 0
21 26 27 0
28 -6 0
28 -27 0
6 27 -28 0
24 22 -2 9 0
-9 25 12 -4 0
-26 -3 0
-12 -5 27 8 0
-20 10 11 24 0
15 14 -9 1 12 -24 0
28 0
