sat_easy_train/easy_4923_SAT.dimacs
p cnf 113 374
-3 1 0
-3 2 0
-1 -2 3 0
6 4 0
6 5 0
-4 -5 -6 0
8 6 0
8 7 0
-6 -7 -8 0
-9 3 0
-9 8 0
-3 -8 9 0
-9 -4 -10 0
9 4 -10 0
-9 4 10 0
9 -4 10 0
-1 -2 -11 0
1 2 -11 0
-1 2 11 0
1 -2 11 0
14 -12 0
14 -13 0
12 13 -14 0
16 -14 0
16 15 0
14 -15 -16 0
18 -16 0
18 -17 0
16 17 -18 0
-17 2 -19 0
17 -2 -19 0
-17 -2 19 0
17 2 19 0
20 -18 0
20 19 0
18 -19 -20 0
-11 -20 -21 0
11 20 -21 0
-11 20 21 0
11 -20 21 0
22 -10 0
22 -21 0
10 21 -22 0
-23 -17 -24 0
23 17 -24 0
-23 17 24 0
23 -17 24 0
-25 -5 0
-25 -24 0
5 24 25 0
3 -13 -27 0
-3 13 -27 0
3 13 27 0
-3 -13 27 0
-28 -26 0
-28 -27 0
26 27 28 0
-25 28 -29 0
25 -28 -29 0
-25 -28 29 0
25 28 29 0
30 2 0
30 -6 0
-2 6 -30 0
31 -5 0
31 30 0
5 -30 -31 0
29 -31 -32 0
-29 31 -32 0
29 31 32 0
-29 -31 32 0
-33 -24 0
-33 -27 0
24 27 33 0
15 -33 -34 0
-15 33 -34 0
15 33 34 0
-15 -33 34 0
34 14 -35 0
-34 -14 -35 0
34 -14 35 0
-34 14 35 0
-37 35 0
-37 36 0
-35 -36 37 0
-38 -32 0
-38 -37 0
32 37 38 0
39 -22 0
39 38 0
22 -38 -39 0
40 12 0
40 30 0
-12 -30 -40 0
39 40 -41 0
-39 -40 -41 0
39 -40 41 0
-39 40 41 0
-43 42 0
-43 -4 0
-42 4 43 0
44 -13 0
44 43 0
13 -43 -44 0
-45 44 0
-45 -2 0
-44 2 45 0
-46 33 0
-46 -23 0
-33 23 46 0
47 35 0
47 46 0
-35 -46 -47 0
-31 -47 -48 0
31 47 -48 0
-31 47 48 0
31 -47 48 0
-33 26 -49 0
33 -26 -49 0
-33 -26 49 0
33 26 49 0
-50 48 0
-50 -49 0
-48 49 50 0
52 -28 0
52 51 0
28 -51 -52 0
-53 50 0
-53 52 0
-50 -52 53 0
-54 -45 0
-54 53 0
45 -53 54 0
6 5 -55 0
-6 -5 -55 0
6 -5 55 0
-6 5 55 0
-57 -55 0
-57 56 0
55 -56 57 0
58 54 0
58 -57 0
-54 57 -58 0
41 58 -59 0
-41 -58 -59 0
41 -58 59 0
-41 58 59 0
60 27 0
60 43 0
-27 -43 -60 0
-61 -51 0
-61 -60 0
51 60 61 0
62 16 0
62 -61 0
-16 61 -62 0
62 -23 -63 0
-62 23 -63 0
62 23 63 0
-62 -23 63 0
-56 -30 -64 0
56 30 -64 0
-56 30 64 0
56 -30 64 0
-65 -33 0
-65 49 0
33 -49 65 0
-65 1 -66 0
65 -1 -66 0
-65 -1 66 0
65 1 66 0
-67 64 0
-67 -66 0
-64 66 67 0
68 63 0
68 67 0
-63 -67 -68 0
-69 -59 0
-69 68 0
59 -68 69 0
-70 -42 0
-70 -8 0
42 8 70 0
71 13 0
71 -70 0
-13 70 -71 0
72 2 0
72 23 0
-2 -23 -72 0
-18 -31 -73 0
18 31 -73 0
-18 31 73 0
18 -31 73 0
5 47 -74 0
-5 -47 -74 0
5 -47 74 0
-5 47 74 0
-75 64 0
-75 -15 0
-64 15 75 0
-74 75 -76 0
74 -75 -76 0
-74 -75 76 0
74 75 76 0
-77 73 0
-77 76 0
-73 -76 77 0
78 -72 0
78 -77 0
72 77 -78 0
-79 66 0
-79 -12 0
-66 12 79 0
56 -13 -80 0
-56 13 -80 0
56 13 80 0
-56 -13 80 0
-81 24 0
-81 80 0
-24 -80 81 0
-79 81 -82 0
79 -81 -82 0
-79 -81 82 0
79 81 82 0
83 -5 0
83 -42 0
5 42 -83 0
84 82 0
84 83 0
-82 -83 -84 0
78 84 -85 0
-78 -84 -85 0
78 -84 85 0
-78 84 85 0
-86 -71 0
-86 85 0
71 -85 86 0
-30 25 -87 0
30 -25 -87 0
-30 -25 87 0
30 25 87 0
42 1 -88 0
-42 -1 -88 0
42 -1 88 0
-42 1 88 0
-89 87 0
-89 -88 0
-87 88 89 0
-90 6 0
-90 -34 0
-6 34 90 0
-91 -80 0
-91 90 0
80 -90 91 0
92 -89 0
92 -91 0
89 91 -92 0
86 92 -93 0
-86 -92 -93 0
86 -92 93 0
-86 92 93 0
94 -62 0
94 44 0
62 -44 -94 0
-95 -36 0
-95 -94 0
36 94 95 0
-96 8 0
-96 -29 0
-8 29 96 0
97 96 0
97 -56 0
-96 56 -97 0
-98 -15 0
-98 56 0
15 -56 98 0
97 98 -99 0
-97 -98 -99 0
97 -98 99 0
-97 98 99 0
100 -95 0
100 -99 0
95 99 -100 0
101 27 0
101 47 0
-27 -47 -101 0
46 -4 -103 0
-46 4 -103 0
46 4 103 0
-46 -4 103 0
-104 102 0
-104 -103 0
-102 103 104 0
105 101 0
105 104 0
-101 -104 -105 0
106 1 0
106 8 0
-1 -8 -106 0
-43 3 -107 0
43 -3 -107 0
-43 -3 107 0
43 3 107 0
107 30 -108 0
-107 -30 -108 0
107 -30 108 0
-107 30 108 0
106 -108 -109 0
-106 108 -109 0
106 108 109 0
-106 -108 109 0
-110 -105 0
-110 -109 0
105 109 110 0
-100 110 -111 0
100 -110 -111 0
-100 -110 111 0
100 110 111 0
112 93 0
112 -111 0
-93 111 -112 0
113 -69 0
113 -112 0
69 112 -113 0
-21 77 0
31 -65 -109 -42 64 0
-81 -77 73 -17 0
-31 -61 -69 0
-62 -70 -102 7 71 0
-57 55 100 -46 -9 4 0
-29 -73 107 -15 0
-90 18 0
80 -104 45 -85 0
-19 -40 0
-43 26 -48 42 -71 0
-58 88 0
-85 47 41 33 -63 0
-71 -32 92 -102 -45 -101 0
-111 -100 -80 -112 0
59 3 92 50 0
-104 102 -48 0
62 78 0
-109 -71 -6 1 29 31 0
-81 -20 48 -111 0
37 -106 63 0
-80 1 -85 50 -63 -11 0
-63 -48 14 53 -42 87 0
-63 53 -102 0
-96 -106 -50 6 2 0
-53 -46 52 -3 0
-90 78 0
2 -111 0
-99 22 0
-83 25 59 -18 0
-53 -15 -61 0
-35 -31 0
5 -105 -45 -8 25 74 0
14 -82 -79 -48 -24 0
33 52 0
-7 -32 -5 -72 74 0
-93 -4 0
-72 -77 -22 0
51 58 -29 0
-61 -99 -73 -85 -1 -58 0
47 113 0
-33 -58 -60 56 92 0
-84 -99 -74 0
79 108 0
47 -23 -111 49 0
-69 -103 -45 0
44 29 111 5 78 0
84 -34 -91 -112 -96 0
109 36 3 98 -52 0
113 0
